32      4       
10      10      10      10      
0       0       0       0       0       2       2       31      
1       0       1       1       1       3       3       8       30      
5       1       0       5       4       2       4       29      
1       5       6       4       0       3       5       27      28      
8       3       7       0       3       3       6       25      26      
7       0       3       2       4       1       7       
10      4       0       8       6       4       9       22      23      24      
10      4       8       5       0       2       9       22      
1       0       7       2       2       1       10      
2       4       0       2       4       2       11      21      
5       0       3       5       7       1       12      
9       4       2       2       0       1       13      
9       4       4       2       0       2       14      20      
10      4       6       0       3       3       15      18      19      
8       4       4       5       0       1       16      
9       3       0       3       4       1       17      
1       5       0       4       4       1       32      
5       5       2       7       0       1       32      
6       6       3       7       0       1       32      
3       5       4       3       0       1       32      
10      0       4       4       3       1       32      
2       0       8       4       3       1       32      
6       0       2       3       6       1       32      
10      0       1       8       2       1       32      
5       4       3       0       4       1       32      
6       0       5       2       4       1       32      
4       3       3       4       0       1       32      
3       4       0       4       4       1       32      
3       0       3       5       3       1       32      
2       0       4       5       5       1       32      
6       0       3       2       8       1       32      
0       0       0       0       0       0       
